results_rootrelaxation/bin012_050_023.srr.sol
solution status: optimal solution found
objective value:                                    1
_var30_                             0.224670811997066 	(obj:0)
_var49_                            0.0172823701536316 	(obj:0)
_var50_                            0.0809253840526793 	(obj:0)
_var150_                            0.246799561082662 	(obj:0)
_var172_                            0.147220190197517 	(obj:0)
_var337_                           0.0705925384052685 	(obj:0)
_var379_                           0.0865032918800165 	(obj:0)
_var417_                            0.453273591806871 	(obj:0)
_var442_                            0.061722750548636 	(obj:1)
_var609_                            0.421909290416976 	(obj:0)
_var696_                            0.184345281638628 	(obj:0)
_var703_                           0.0724213606437451 	(obj:0)
_var712_                            0.753200438917338 	(obj:0)
_var716_                            0.704736649597666 	(obj:0)
_var717_                          0.00448061448425929 	(obj:1)
_var718_                          0.00274323335772286 	(obj:0)
_var728_                            0.196141185076814 	(obj:1)
_var739_                            0.119056327724939 	(obj:1)
_var740_                            0.169440380395016 	(obj:0)
_var743_                            0.429224579370898 	(obj:0)
_var746_                            0.277066569129479 	(obj:0)
_var747_                           0.0760790051206958 	(obj:0)
_var750_                            0.245702267739579 	(obj:1)
_var759_                            0.524871982443282 	(obj:0)
_var762_                           0.0691294806144934 	(obj:0)
_var763_                           0.0129846378931933 	(obj:0)
_var764_                            0.217904169714715 	(obj:0)
_var770_                            0.210863204096571 	(obj:0)
_var771_                            0.213332114118513 	(obj:0)
_var772_                           0.0333760058522386 	(obj:1)
_var773_                             0.34171543525969 	(obj:0)
_var775_                            0.117136064374545 	(obj:0)
_var777_                           0.0515727871250959 	(obj:0)
_var779_                             0.44851865398682 	(obj:0)
_var780_                             0.21543525969277 	(obj:0)
_var781_                            0.081748354059976 	(obj:0)
_var784_                            0.160296269202643 	(obj:0)
_var785_                            0.312820043891716 	(obj:0)
_var786_                            0.276609363569865 	(obj:0)
_var787_                            0.241038771031444 	(obj:0)
_var788_                             0.16678858814923 	(obj:0)
_var789_                            0.246799561082661 	(obj:0)
_var791_                           0.0856803218727153 	(obj:0)
_var793_                           0.0606254572055565 	(obj:0)
_var794_                            0.104517190929051 	(obj:1)
_var796_                            0.252286027798114 	(obj:0)
_var797_                            0.234637893196776 	(obj:0)
_var798_                            0.324067300658381 	(obj:0)
_var801_                            0.222841989758606 	(obj:0)
_var802_                           0.0560534016093536 	(obj:0)
_var805_                            0.176207022677395 	(obj:1)
_var806_                          0.00338332114118545 	(obj:0)
_var808_                            0.067209217264082 	(obj:0)
_var809_                          0.00566934893927752 	(obj:0)
_var814_                            0.101591075347493 	(obj:0)
_var815_                           0.0213057790782646 	(obj:0)
_var816_                           0.0587966349670873 	(obj:1)
_var817_                           0.0689465983906221 	(obj:0)
_var821_                           0.0750731528895276 	(obj:0)
_var823_                           0.0515727871250959 	(obj:0)
_var824_                           0.0410570592538495 	(obj:0)
