results_rootrelaxation/bin012_050_023.srr.log
SCIP version 8.0.3.5 [precision: 8 byte] [memory: block] [mode: optimized] [LP solver: Soplex 6.0.1.3] [GitHash: 438792519e]
Copyright (c) 2002-2023 Zuse Institute Berlin (ZIB)

External libraries: 
  Readline 8.1         GNU library for command line editing (gnu.org/s/readline)
  Soplex 6.0.1.3       Linear Programming Solver developed at Zuse Institute Berlin (soplex.zib.de) [GitHash: 713be0fe]
  CppAD 20180000.0     Algorithmic Differentiation of C++ algorithms developed by B. Bell (github.com/coin-or/CppAD)
  ZLIB 1.2.11          General purpose compression library by J. Gailly and M. Adler (zlib.net)
  bliss 0.77           Computing Graph Automorphism Groups by T. Junttila and P. Kaski (www.tcs.hut.fi/Software/bliss/)

user parameter file <scip.set> not found - using default parameters

srr/relaxation = TRUE

read problem <instances/bin012_050_023.srr>
============

Original problem: 
original problem has 0 variables (0 bin, 0 int, 0 impl, 0 cont) and 77 constraints

presolving:
presolving (1 rounds: 1 fast, 1 medium, 1 exhaustive):
 0 deleted vars, 0 deleted constraints, 0 added constraints, 0 tightened bounds, 0 added holes, 0 changed sides, 0 changed coefficients
 0 implications, 0 cliques
presolved problem has 0 variables (0 bin, 0 int, 0 impl, 0 cont) and 77 constraints
     77 constraints of type <linear>
Presolving Time: 0.00

 time | node  | left  |LP iter|LP it/n|mem/heur|mdpt |vars |cons |rows |cuts |sepa|confs|strbr|  dualbound   | primalbound  |  gap   | compl. 
  0.0s|     1 |     0 |     1 |     - |   710k |   0 |   1 |  77 |  77 |   0 |  0 |   0 |   0 |      --      |      --      |    Inf | unknown
r 0.0s|     1 |     0 |   770 |     - |simplero|   0 | 682 |  77 |  77 |   0 |  0 |   0 |   0 |      --      | 1.498669e+01 |    Inf | unknown
r 0.0s|     1 |     0 |   795 |     - |simplero|   0 | 693 |  77 |  77 |   0 |  0 |   0 |   0 |      --      | 1.420379e+01 |    Inf | unknown
r 0.0s|     1 |     0 |   825 |     - |simplero|   0 | 704 |  77 |  77 |   0 |  0 |   0 |   0 |      --      | 1.334743e+01 |    Inf | unknown
r 0.0s|     1 |     0 |   840 |     - |simplero|   0 | 715 |  77 |  77 |   0 |  0 |   0 |   0 |      --      | 1.255135e+01 |    Inf | unknown
r 0.0s|     1 |     0 |   846 |     - |simplero|   0 | 715 |  77 |  77 |   0 |  0 |   0 |   0 |      --      | 1.249069e+01 |    Inf | unknown
r 0.0s|     1 |     0 |   892 |     - |simplero|   0 | 726 |  77 |  77 |   0 |  0 |   0 |   0 |      --      | 1.125265e+01 |    Inf | unknown
r 0.0s|     1 |     0 |   897 |     - |simplero|   0 | 726 |  77 |  77 |   0 |  0 |   0 |   0 |      --      | 1.122614e+01 |    Inf | unknown
r 0.0s|     1 |     0 |   942 |     - |simplero|   0 | 737 |  77 |  77 |   0 |  0 |   0 |   0 |      --      | 9.437005e+00 |    Inf | unknown
r 0.0s|     1 |     0 |   968 |     - |simplero|   0 | 737 |  77 |  77 |   0 |  0 |   0 |   0 |      --      | 9.318999e+00 |    Inf | unknown
r 0.0s|     1 |     0 |  1016 |     - |simplero|   0 | 748 |  77 |  77 |   0 |  0 |   0 |   0 |      --      | 8.003300e+00 |    Inf | unknown
r 0.0s|     1 |     0 |  1052 |     - |simplero|   0 | 748 |  77 |  77 |   0 |  0 |   0 |   0 |      --      | 7.260900e+00 |    Inf | unknown
r 0.1s|     1 |     0 |  1062 |     - |simplero|   0 | 748 |  77 |  77 |   0 |  0 |   0 |   0 |      --      | 7.210988e+00 |    Inf | unknown
r 0.1s|     1 |     0 |  1097 |     - |simplero|   0 | 759 |  77 |  77 |   0 |  0 |   0 |   0 |      --      | 6.845072e+00 |    Inf | unknown
r 0.1s|     1 |     0 |  1112 |     - |simplero|   0 | 759 |  77 |  77 |   0 |  0 |   0 |   0 |      --      | 6.719920e+00 |    Inf | unknown
 time | node  | left  |LP iter|LP it/n|mem/heur|mdpt |vars |cons |rows |cuts |sepa|confs|strbr|  dualbound   | primalbound  |  gap   | compl. 
r 0.1s|     1 |     0 |  1115 |     - |simplero|   0 | 759 |  77 |  77 |   0 |  0 |   0 |   0 |      --      | 6.709379e+00 |    Inf | unknown
r 0.1s|     1 |     0 |  1163 |     - |simplero|   0 | 770 |  77 |  77 |   0 |  0 |   0 |   0 |      --      | 5.281939e+00 |    Inf | unknown
r 0.1s|     1 |     0 |  1177 |     - |simplero|   0 | 770 |  77 |  77 |   0 |  0 |   0 |   0 |      --      | 5.161310e+00 |    Inf | unknown
r 0.1s|     1 |     0 |  1186 |     - |simplero|   0 | 770 |  77 |  77 |   0 |  0 |   0 |   0 |      --      | 5.090394e+00 |    Inf | unknown
r 0.1s|     1 |     0 |  1243 |     - |simplero|   0 | 781 |  77 |  77 |   0 |  0 |   0 |   0 |      --      | 3.419130e+00 |    Inf | unknown
r 0.1s|     1 |     0 |  1255 |     - |simplero|   0 | 781 |  77 |  77 |   0 |  0 |   0 |   0 |      --      | 3.350654e+00 |    Inf | unknown
r 0.1s|     1 |     0 |  1256 |     - |simplero|   0 | 781 |  77 |  77 |   0 |  0 |   0 |   0 |      --      | 3.350530e+00 |    Inf | unknown
r 0.1s|     1 |     0 |  1287 |     - |simplero|   0 | 792 |  77 |  77 |   0 |  0 |   0 |   0 |      --      | 2.846449e+00 |    Inf | unknown
r 0.1s|     1 |     0 |  1330 |     - |simplero|   0 | 792 |  77 |  77 |   0 |  0 |   0 |   0 |      --      | 2.545070e+00 |    Inf | unknown
r 0.1s|     1 |     0 |  1345 |     - |simplero|   0 | 792 |  77 |  77 |   0 |  0 |   0 |   0 |      --      | 2.510973e+00 |    Inf | unknown
r 0.1s|     1 |     0 |  1391 |     - |simplero|   0 | 803 |  77 |  77 |   0 |  0 |   0 |   0 |      --      | 1.549755e+00 |    Inf | unknown
r 0.1s|     1 |     0 |  1416 |     - |simplero|   0 | 814 |  77 |  77 |   0 |  0 |   0 |   0 |      --      | 1.239912e+00 |    Inf | unknown
r 0.1s|     1 |     0 |  1464 |     - |simplero|   0 | 825 |  77 |  77 |   0 |  0 |   0 |   0 |      --      | 1.000000e+00 |    Inf | unknown
  0.1s|     1 |     0 |  1465 |     - |  4089k |   0 | 826 |  77 |  77 |   0 |  0 |   0 |   0 | 1.000000e+00 | 1.000000e+00 |   0.00%| unknown
  0.1s|     1 |     0 |  1465 |     - |  4089k |   0 | 826 |  77 |  77 |   0 |  0 |   0 |   0 | 1.000000e+00 | 1.000000e+00 |   0.00%| unknown

SCIP Status        : problem is solved [optimal solution found]
Solving Time (sec) : 0.07
Solving Nodes      : 1
Primal Bound       : +1.00000000000000e+00 (27 solutions)
Dual Bound         : +1.00000000000000e+00
Gap                : 0.00 %

written transformed problem to file <results_rootrelaxation/bin012_050_023.srr.lp>
written transformed problem to file <results_rootrelaxation/bin012_050_023.srr.cip>


SCIP version 8.0.3.5 [precision: 8 byte] [memory: block] [mode: optimized] [LP solver: Soplex 6.0.1.3] [GitHash: 438792519e]
Copyright (c) 2002-2023 Zuse Institute Berlin (ZIB)

External libraries: 
  Readline 8.1         GNU library for command line editing (gnu.org/s/readline)
  Soplex 6.0.1.3       Linear Programming Solver developed at Zuse Institute Berlin (soplex.zib.de) [GitHash: 713be0fe]
  CppAD 20180000.0     Algorithmic Differentiation of C++ algorithms developed by B. Bell (github.com/coin-or/CppAD)
  ZLIB 1.2.11          General purpose compression library by J. Gailly and M. Adler (zlib.net)
  bliss 0.77           Computing Graph Automorphism Groups by T. Junttila and P. Kaski (www.tcs.hut.fi/Software/bliss/)

user parameter file <scip.set> not found - using default parameters

srr/relaxation = TRUE

read problem <instances/bin012_050_023.srr>
============

Original problem: 
original problem has 0 variables (0 bin, 0 int, 0 impl, 0 cont) and 77 constraints

presolving:
presolving (1 rounds: 1 fast, 1 medium, 1 exhaustive):
 0 deleted vars, 0 deleted constraints, 0 added constraints, 0 tightened bounds, 0 added holes, 0 changed sides, 0 changed coefficients
 0 implications, 0 cliques
presolved problem has 0 variables (0 bin, 0 int, 0 impl, 0 cont) and 77 constraints
     77 constraints of type <linear>
Presolving Time: 0.00

 time | node  | left  |LP iter|LP it/n|mem/heur|mdpt |vars |cons |rows |cuts |sepa|confs|strbr|  dualbound   | primalbound  |  gap   | compl. 
  0.0s|     1 |     0 |     1 |     - |   710k |   0 |   1 |  77 |  77 |   0 |  0 |   0 |   0 |      --      |      --      |    Inf | unknown
r 0.1s|     1 |     0 |   770 |     - |simplero|   0 | 682 |  77 |  77 |   0 |  0 |   0 |   0 |      --      | 1.498669e+01 |    Inf | unknown
r 0.1s|     1 |     0 |   795 |     - |simplero|   0 | 693 |  77 |  77 |   0 |  0 |   0 |   0 |      --      | 1.420379e+01 |    Inf | unknown
r 0.1s|     1 |     0 |   825 |     - |simplero|   0 | 704 |  77 |  77 |   0 |  0 |   0 |   0 |      --      | 1.334743e+01 |    Inf | unknown
r 0.1s|     1 |     0 |   840 |     - |simplero|   0 | 715 |  77 |  77 |   0 |  0 |   0 |   0 |      --      | 1.255135e+01 |    Inf | unknown
r 0.1s|     1 |     0 |   846 |     - |simplero|   0 | 715 |  77 |  77 |   0 |  0 |   0 |   0 |      --      | 1.249069e+01 |    Inf | unknown
r 0.1s|     1 |     0 |   892 |     - |simplero|   0 | 726 |  77 |  77 |   0 |  0 |   0 |   0 |      --      | 1.125265e+01 |    Inf | unknown
r 0.1s|     1 |     0 |   897 |     - |simplero|   0 | 726 |  77 |  77 |   0 |  0 |   0 |   0 |      --      | 1.122614e+01 |    Inf | unknown
r 0.1s|     1 |     0 |   942 |     - |simplero|   0 | 737 |  77 |  77 |   0 |  0 |   0 |   0 |      --      | 9.437005e+00 |    Inf | unknown
r 0.1s|     1 |     0 |   968 |     - |simplero|   0 | 737 |  77 |  77 |   0 |  0 |   0 |   0 |      --      | 9.318999e+00 |    Inf | unknown
r 0.1s|     1 |     0 |  1016 |     - |simplero|   0 | 748 |  77 |  77 |   0 |  0 |   0 |   0 |      --      | 8.003300e+00 |    Inf | unknown
r 0.1s|     1 |     0 |  1052 |     - |simplero|   0 | 748 |  77 |  77 |   0 |  0 |   0 |   0 |      --      | 7.260900e+00 |    Inf | unknown
r 0.1s|     1 |     0 |  1062 |     - |simplero|   0 | 748 |  77 |  77 |   0 |  0 |   0 |   0 |      --      | 7.210988e+00 |    Inf | unknown
r 0.1s|     1 |     0 |  1097 |     - |simplero|   0 | 759 |  77 |  77 |   0 |  0 |   0 |   0 |      --      | 6.845072e+00 |    Inf | unknown
r 0.1s|     1 |     0 |  1112 |     - |simplero|   0 | 759 |  77 |  77 |   0 |  0 |   0 |   0 |      --      | 6.719920e+00 |    Inf | unknown
 time | node  | left  |LP iter|LP it/n|mem/heur|mdpt |vars |cons |rows |cuts |sepa|confs|strbr|  dualbound   | primalbound  |  gap   | compl. 
r 0.1s|     1 |     0 |  1115 |     - |simplero|   0 | 759 |  77 |  77 |   0 |  0 |   0 |   0 |      --      | 6.709379e+00 |    Inf | unknown
r 0.1s|     1 |     0 |  1163 |     - |simplero|   0 | 770 |  77 |  77 |   0 |  0 |   0 |   0 |      --      | 5.281939e+00 |    Inf | unknown
r 0.1s|     1 |     0 |  1177 |     - |simplero|   0 | 770 |  77 |  77 |   0 |  0 |   0 |   0 |      --      | 5.161310e+00 |    Inf | unknown
r 0.1s|     1 |     0 |  1186 |     - |simplero|   0 | 770 |  77 |  77 |   0 |  0 |   0 |   0 |      --      | 5.090394e+00 |    Inf | unknown
r 0.1s|     1 |     0 |  1243 |     - |simplero|   0 | 781 |  77 |  77 |   0 |  0 |   0 |   0 |      --      | 3.419130e+00 |    Inf | unknown
r 0.1s|     1 |     0 |  1255 |     - |simplero|   0 | 781 |  77 |  77 |   0 |  0 |   0 |   0 |      --      | 3.350654e+00 |    Inf | unknown
r 0.1s|     1 |     0 |  1256 |     - |simplero|   0 | 781 |  77 |  77 |   0 |  0 |   0 |   0 |      --      | 3.350530e+00 |    Inf | unknown
r 0.1s|     1 |     0 |  1287 |     - |simplero|   0 | 792 |  77 |  77 |   0 |  0 |   0 |   0 |      --      | 2.846449e+00 |    Inf | unknown
r 0.1s|     1 |     0 |  1330 |     - |simplero|   0 | 792 |  77 |  77 |   0 |  0 |   0 |   0 |      --      | 2.545070e+00 |    Inf | unknown
r 0.1s|     1 |     0 |  1345 |     - |simplero|   0 | 792 |  77 |  77 |   0 |  0 |   0 |   0 |      --      | 2.510973e+00 |    Inf | unknown
r 0.1s|     1 |     0 |  1391 |     - |simplero|   0 | 803 |  77 |  77 |   0 |  0 |   0 |   0 |      --      | 1.549755e+00 |    Inf | unknown
r 0.1s|     1 |     0 |  1416 |     - |simplero|   0 | 814 |  77 |  77 |   0 |  0 |   0 |   0 |      --      | 1.239912e+00 |    Inf | unknown
r 0.1s|     1 |     0 |  1464 |     - |simplero|   0 | 825 |  77 |  77 |   0 |  0 |   0 |   0 |      --      | 1.000000e+00 |    Inf | unknown
  0.1s|     1 |     0 |  1465 |     - |  4089k |   0 | 826 |  77 |  77 |   0 |  0 |   0 |   0 | 1.000000e+00 | 1.000000e+00 |   0.00%| unknown
  0.1s|     1 |     0 |  1465 |     - |  4089k |   0 | 826 |  77 |  77 |   0 |  0 |   0 |   0 | 1.000000e+00 | 1.000000e+00 |   0.00%| unknown

SCIP Status        : problem is solved [optimal solution found]
Solving Time (sec) : 0.10
Solving Nodes      : 1
Primal Bound       : +1.00000000000000e+00 (27 solutions)
Dual Bound         : +1.00000000000000e+00
Gap                : 0.00 %

written transformed problem to file <results_rootrelaxation/bin012_050_023.srr.lp>
written transformed problem to file <results_rootrelaxation/bin012_050_023.srr.cip>

written solution information to file <results_rootrelaxation/bin012_050_023.srr.sol>



